SAT
55 99 46 52 60 -53 -64 3 1 51 19 -87 -35 -70 89 -68 -82 -48 63 13 -57 -36 -8 42 27 -37 69 62 28 -81 14 100 97 85 -76 65 44 -6 -20 47 -75 11 -2 -29 -9 -88 26 39 25 -71 -90 38 -96 -16 10 61 -49 -66 -34 12 58 -59 -31 -24 72 73 -93 32 -95 -54 -41 7 18 -30 91 4 -83 -45 92 -94 -33 -40 -98 -79 43 -50 17 74 56 67 -86 22 21 -5 77 -84 -23 -78 15 -80 0
